; benchmark generated from python API
(set-info :status unknown)
(declare-datatypes ((RealState 0)) (((RMk1 (rval1 Real)) (RMk2 (rval2 Real)))))
 (assert
 (forall ((|v17:0| Real) )(forall ((|v16:1| Real) )(forall ((|v15:2| Real) )(forall ((|v14:3| Real) )(forall ((|v13:4| Real) )(forall ((|v12:5| Real) )(exists ((|v11:6_st| RealState) (val!10140 Real) )(exists ((|v10:7_st| RealState) (val!10141 Real) )(exists ((|v9:8_st| RealState) (val!10142 Real) )(exists ((|v8:9_st| RealState) (val!10143 Real) )(exists ((|v7:10_st| RealState) (val!10144 Real) )(exists ((|v6:11_st| RealState) (val!10145 Real) )(forall ((|v5:12| Real) )(forall ((|v4:13| Real) )(forall ((|v3:14| Real) )(forall ((|v2:15| Real) )(forall ((|v1:16| Real) )(forall ((|v0:17| Real) )(let ((?x212 (- 20.0)))
 (let ((?x9214 (rval2 |v8:9_st|)))
 (let ((?x499 (* 14.0 ?x9214)))
 (let ((?x7091 (- 6.0)))
 (let ((?x60 (* ?x7091 |v1:16|)))
 (let ((?x7977 (+ (+ (* 17.0 (rval2 |v10:7_st|)) (* (- 4.0) |v5:12|)) (* 7.0 (rval2 |v11:6_st|)))))
 (let ((?x1458 (+ (+ (+ ?x7977 (* (- 4.0) |v13:4|)) (* (- 2.0) (rval2 |v6:11_st|))) ?x60)))
 (let ((?x5190 (* 13.0 |v0:17|)))
 (let ((?x9308 (- 1.0)))
 (let ((?x5223 (* ?x9308 |v0:17|)))
 (let ((?x3237 (- 14.0)))
 (let ((?x4627 (* ?x3237 |v2:15|)))
 (let ((?x5828 (rval2 |v11:6_st|)))
 (let ((?x2271 (- 11.0)))
 (let ((?x8097 (* ?x2271 ?x5828)))
 (let ((?x1742 (+ (+ (+ (* 6.0 |v2:15|) (* (- 19.0) ?x5828)) (* (- 8.0) |v13:4|)) ?x8097)))
 (let (($x3012 (or (<= (+ (+ (+ ?x1742 ?x4627) ?x5223) ?x5190) 4.0) (<= (+ ?x1458 ?x499) ?x212))))
 (let ((?x3684 (- 12.0)))
 (let ((?x4383 (rval2 |v6:11_st|)))
 (let ((?x4592 (- 4.0)))
 (let ((?x4388 (* ?x4592 ?x4383)))
 (let ((?x3322 (* 20.0 |v3:14|)))
 (let ((?x3704 (rval2 |v10:7_st|)))
 (let ((?x4856 (* 14.0 ?x3704)))
 (let ((?x2969 (+ (+ (+ (+ (* 16.0 |v12:5|) (* 19.0 ?x3704)) (* 8.0 |v12:5|)) ?x4856) ?x3322)))
 (let ((?x1755 (* 5.0 |v3:14|)))
 (let ((?x7271 (* 13.0 ?x3704)))
 (let ((?x792 (* 20.0 |v15:2|)))
 (let ((?x1632 (* 13.0 ?x9214)))
 (let ((?x3854 (+ (+ (+ (+ (* 5.0 |v1:16|) (* ?x212 ?x5828)) (* (- 10.0) ?x4383)) ?x1632) ?x792)))
 (let (($x6190 (and (<= (+ (+ ?x3854 ?x7271) ?x1755) ?x3684) (<= (+ (+ ?x2969 (* (- 15.0) ?x3704)) ?x4388) ?x3684))))
 (let ((?x7878 (- 13.0)))
 (let ((?x2683 (* 5.0 ?x4383)))
 (let ((?x7122 (- 17.0)))
 (let ((?x7398 (* ?x7122 ?x3704)))
 (let ((?x415 (+ (+ (+ (+ (* (- 10.0) |v0:17|) (* ?x9308 |v12:5|)) (* 6.0 |v14:3|)) |v12:5|) ?x7398)))
 (let ((?x5578 (* ?x7091 |v13:4|)))
 (let ((?x6832 (* 6.0 |v5:12|)))
 (let ((?x3958 (+ (+ (+ (+ (* ?x7878 |v14:3|) ?x4627) (* 6.0 |v0:17|)) (* (- 16.0) |v0:17|)) ?x6832)))
 (let (($x5266 (or (<= (+ (+ ?x3958 (* 12.0 ?x5828)) ?x5578) 13.0) (<= (+ (+ ?x415 ?x2683) (* 0.0 |v12:5|)) ?x7878))))
 (let ((?x7876 (- 9.0)))
 (let ((?x8340 (* ?x3237 |v1:16|)))
 (let ((?x2466 (* 15.0 |v17:0|)))
 (let ((?x4904 (* ?x2271 |v16:1|)))
 (let ((?x911 (+ (+ (+ (+ (* ?x2271 |v1:16|) (* (- 2.0) |v2:15|)) ?x2683) (* 19.0 |v5:12|)) ?x4904)))
 (let ((?x7919 (- 2.0)))
 (let ((?x3881 (* ?x7919 ?x3704)))
 (let ((?x9133 (* ?x7919 |v4:13|)))
 (let ((?x736 (+ (+ (+ (* 16.0 |v12:5|) (* 10.0 |v16:1|)) (* ?x3237 ?x3704)) (* (- 8.0) (rval2 |v7:10_st|)))))
 (let (($x6653 (and (<= (+ (+ (+ ?x736 ?x9133) ?x3881) (* (- 19.0) ?x3704)) ?x212) (<= (+ (+ ?x911 ?x2466) ?x8340) ?x7876))))
 (let ((?x7925 (- 3.0)))
 (let ((?x2837 (* 6.0 |v16:1|)))
 (let ((?x1060 (* ?x7878 |v2:15|)))
 (let ((?x3022 (* 5.0 |v14:3|)))
 (let ((?x1405 (+ (+ (+ (* 3.0 ?x3704) (* ?x3684 (rval2 |v7:10_st|))) (* 2.0 |v13:4|)) ?x3022)))
 (let ((?x3093 (* 2.0 |v16:1|)))
 (let ((?x7499 (* ?x7122 |v2:15|)))
 (let ((?x1454 (* ?x4592 |v17:0|)))
 (let ((?x3429 (+ (+ (+ (+ (* ?x7876 |v2:15|) (* ?x4592 |v0:17|)) (* ?x4592 ?x3704)) ?x1454) ?x7499)))
 (let (($x5987 (or (<= (+ (+ ?x3429 ?x3093) ?x4856) 7.0) (<= (+ (+ (+ ?x1405 ?x1060) ?x2837) (* 15.0 (rval2 |v7:10_st|))) ?x7925))))
 (let ((?x5773 (* 9.0 |v12:5|)))
 (let ((?x8440 (* ?x4592 |v3:14|)))
 (let ((?x5786 (- 18.0)))
 (let ((?x6779 (* ?x5786 |v13:4|)))
 (let ((?x7358 (rval2 |v9:8_st|)))
 (let ((?x5946 (* ?x5786 ?x7358)))
 (let ((?x7684 (+ (+ (+ (+ (* 19.0 (rval2 |v7:10_st|)) (* (- 8.0) ?x7358)) ?x5946) ?x6779) (* (- 7.0) ?x5828))))
 (let ((?x5040 (* 16.0 |v5:12|)))
 (let ((?x3558 (- 8.0)))
 (let ((?x8383 (* ?x3558 |v0:17|)))
 (let ((?x3103 (+ (+ (+ (+ (* 12.0 |v14:3|) (* ?x4592 |v0:17|)) (* 13.0 ?x7358)) ?x3704) ?x8383)))
 (let (($x8641 (or (<= (+ (+ ?x3103 (* ?x7878 ?x3704)) ?x5040) 18.0) (<= (+ (+ ?x7684 ?x8440) ?x5773) 18.0))))
 (let ((?x1687 (- 5.0)))
 (let ((?x2332 (* ?x7122 |v13:4|)))
 (let ((?x1496 (* ?x5786 ?x4383)))
 (let ((?x2249 (- 7.0)))
 (let ((?x9447 (* ?x2249 |v17:0|)))
 (let ((?x6276 (+ (+ (+ (+ (* ?x7925 |v5:12|) (* ?x7919 |v2:15|)) (* ?x3558 |v13:4|)) ?x9447) ?x1496)))
 (let ((?x5967 (- 10.0)))
 (let ((?x7491 (* 14.0 |v14:3|)))
 (let ((?x563 (* ?x7925 ?x7358)))
 (let ((?x1971 (* 12.0 |v1:16|)))
 (let ((?x1627 (* 9.0 ?x3704)))
 (let ((?x2723 (+ (+ (+ (+ (* ?x7122 ?x4383) (* ?x7878 |v13:4|)) (* 8.0 |v3:14|)) ?x1627) ?x1971)))
 (let (($x963 (or (<= (+ (+ ?x2723 ?x563) ?x7491) ?x5967) (<= (+ (+ ?x6276 (* 12.0 ?x7358)) ?x2332) ?x1687))))
 (let ((?x631 (* 20.0 ?x5828)))
 (let ((?x2337 (* 5.0 ?x7358)))
 (let ((?x1355 (+ (+ (+ (+ (* ?x2249 ?x7358) (* ?x5786 |v12:5|)) ?x8097) (* ?x5967 (rval2 |v7:10_st|))) ?x2337)))
 (let ((?x3393 (* 2.0 |v13:4|)))
 (let ((?x7569 (* 10.0 |v2:15|)))
 (let ((?x7662 (* 2.0 |v1:16|)))
 (let ((?x6883 (+ (+ (+ (+ (* ?x2249 ?x3704) (* 19.0 ?x3704)) (* ?x7919 |v1:16|)) ?x7662) ?x1454)))
 (let (($x4819 (or (<= (+ (+ ?x6883 ?x7569) ?x3393) 17.0) (<= (+ (+ ?x1355 (* (- 15.0) (rval2 |v7:10_st|))) ?x631) 7.0))))
 (let (($x8648 (and (or (and $x4819 $x963) (and $x8641 $x5987)) (or (or $x6653 $x5266) (and $x6190 $x3012)))))
 (let ((?x2345 (* 9.0 ?x9214)))
 (let ((?x2904 (* 13.0 |v16:1|)))
 (let ((?x754 (* ?x7122 ?x9214)))
 (let ((?x5615 (+ (+ (+ (+ (* 11.0 |v17:0|) (* 5.0 ?x5828)) (* 0.0 |v15:2|)) ?x754) ?x5773)))
 (let ((?x4087 (* 8.0 |v1:16|)))
 (let ((?x9340 (* 9.0 |v5:12|)))
 (let ((?x6939 (* 10.0 |v17:0|)))
 (let ((?x4617 (* ?x1687 |v4:13|)))
 (let ((?x3259 (+ (+ (+ (+ (* ?x2249 |v4:13|) (* ?x4592 |v14:3|)) (* 18.0 |v16:1|)) ?x4617) ?x6939)))
 (let (($x4413 (and (<= (+ (+ ?x3259 ?x9340) ?x4087) ?x2271) (<= (+ (+ ?x5615 ?x2904) ?x2345) 5.0))))
 (let ((?x8923 (* 12.0 |v3:14|)))
 (let ((?x4651 (* ?x2249 |v3:14|)))
 (let ((?x7084 (+ (+ (+ (+ (* ?x2271 |v4:13|) (* ?x3237 ?x3704)) (* 15.0 ?x5828)) ?x4651) (* 5.0 |v17:0|))))
 (let ((?x4265 (* ?x212 |v5:12|)))
 (let ((?x7237 (* ?x5786 ?x9214)))
 (let ((?x619 (* 17.0 ?x5828)))
 (let ((?x27 (+ (+ (+ (+ (* ?x7919 |v15:2|) (* ?x9308 ?x5828)) (* 2.0 |v15:2|)) ?x619) ?x7237)))
 (let (($x5785 (and (<= (+ (+ ?x27 ?x792) ?x4265) ?x7878) (<= (+ (+ ?x7084 ?x7398) ?x8923) 17.0))))
 (let ((?x904 (* 15.0 |v0:17|)))
 (let ((?x879 (* 3.0 |v5:12|)))
 (let ((?x4232 (- 15.0)))
 (let ((?x1113 (* ?x4232 ?x9214)))
 (let ((?x6152 (+ (+ (+ (+ (* ?x7919 |v12:5|) (* ?x3558 |v1:16|)) (* ?x4592 |v1:16|)) ?x1113) ?x879)))
 (let ((?x6084 (* 10.0 |v3:14|)))
 (let ((?x8484 (* 19.0 |v0:17|)))
 (let ((?x8870 (* ?x2271 |v4:13|)))
 (let ((?x6977 (* 19.0 |v17:0|)))
 (let ((?x3957 (+ (+ (+ (+ (+ (* (- 16.0) ?x7358) ?x754) (* 17.0 |v14:3|)) ?x6977) ?x8870) ?x8484)))
 (let (($x8633 (and (<= (+ ?x3957 ?x6084) ?x3237) (<= (+ (+ ?x6152 (* ?x3684 ?x5828)) ?x904) 6.0))))
 (let ((?x5470 (rval2 |v7:10_st|)))
 (let ((?x5395 (* 10.0 ?x5470)))
 (let ((?x5512 (* 10.0 ?x5828)))
 (let ((?x7240 (* ?x9308 |v1:16|)))
 (let ((?x8717 (* 20.0 ?x3704)))
 (let ((?x4727 (+ (+ (+ (+ (* ?x4232 |v3:14|) (* 5.0 |v16:1|)) (* 19.0 |v4:13|)) ?x8717) ?x7240)))
 (let ((?x6234 (* 3.0 |v4:13|)))
 (let ((?x1927 (- 16.0)))
 (let ((?x7773 (* ?x1927 |v0:17|)))
 (let ((?x5589 (+ (+ (+ (+ (* ?x5967 |v3:14|) (* 2.0 ?x7358)) |v4:13|) (* ?x4592 ?x5470)) (* 20.0 |v17:0|))))
 (let (($x4802 (and (<= (+ (+ ?x5589 ?x7773) ?x6234) 15.0) (<= (+ (+ ?x4727 ?x5512) ?x5395) ?x5967))))
 (let ((?x8921 (* 11.0 ?x5470)))
 (let ((?x2344 (* ?x9308 |v2:15|)))
 (let ((?x8133 (* 18.0 |v1:16|)))
 (let ((?x8513 (+ (+ (+ (+ (* 19.0 |v14:3|) (* 10.0 ?x4383)) (* ?x7925 |v4:13|)) ?x8133) ?x2344)))
 (let ((?x192 (* 16.0 ?x7358)))
 (let ((?x6307 (* 11.0 |v1:16|)))
 (let ((?x7313 (+ (+ (+ (* 16.0 ?x5470) (* 18.0 |v13:4|)) (* ?x4232 |v5:12|)) (* (- 19.0) ?x7358))))
 (let ((?x8846 (* 5.0 |v0:17|)))
 (let ((?x6016 (* ?x212 |v14:3|)))
 (let ((?x5426 (* ?x5786 |v0:17|)))
 (let ((?x5652 (+ (+ (+ (+ (* 5.0 ?x9214) (* 16.0 ?x5828)) (* ?x7925 |v3:14|)) ?x3881) ?x5426)))
 (let (($x567 (and (<= (+ (+ ?x5652 ?x6016) ?x8846) 7.0) (<= (+ (+ (+ ?x7313 ?x6307) |v14:3|) ?x192) ?x4232))))
 (let ((?x1708 (* ?x7122 |v5:12|)))
 (let ((?x6259 (* ?x7925 ?x4383)))
 (let ((?x7466 (* 4.0 |v5:12|)))
 (let ((?x7307 (+ (+ (+ (+ (* 4.0 |v4:13|) ?x6259) (* ?x7091 |v15:2|)) (* 11.0 ?x7358)) ?x7466)))
 (let ((?x8510 (* ?x7919 |v17:0|)))
 (let ((?x9282 (* ?x3237 |v3:14|)))
 (let ((?x4137 (* ?x4232 |v4:13|)))
 (let ((?x6594 (+ (+ (+ (+ (* ?x7091 ?x5828) (* ?x7876 |v14:3|)) (* ?x7878 ?x9214)) ?x4137) (* ?x7091 |v12:5|))))
 (let (($x5249 (or (<= (+ (+ ?x6594 ?x9282) ?x8510) 20.0) (<= (+ (+ ?x7307 ?x6259) ?x1708) 6.0))))
 (let (($x3635 (and (and (and $x5249 $x567) (<= (+ (+ ?x8513 ?x8921) ?x60) ?x5967)) (and (and $x4802 $x8633) (or $x5785 $x4413)))))
 (let ((?x9310 (* ?x7876 ?x3704)))
 (let ((?x1803 (* ?x7876 |v5:12|)))
 (let ((?x5619 (+ (+ (+ (* 3.0 |v17:0|) (* ?x3558 |v3:14|)) (* ?x9308 |v17:0|)) (* 17.0 ?x5470))))
 (let ((?x7950 (* ?x1927 |v15:2|)))
 (let ((?x9146 (* 16.0 |v4:13|)))
 (let ((?x7923 (+ (+ (+ (+ ?x7662 (* ?x7919 |v0:17|)) (* 20.0 ?x9214)) (* ?x4232 |v5:12|)) ?x9146)))
 (let ((?x1195 (* 19.0 ?x9214)))
 (let ((?x4056 (* ?x1687 ?x5470)))
 (let ((?x5257 (+ (+ (+ (* 2.0 |v15:2|) (* ?x3684 ?x4383)) (* ?x5967 |v13:4|)) (* 18.0 ?x5470))))
 (let (($x3089 (and (<= (+ (+ (+ ?x5257 ?x4056) ?x1195) ?x6977) ?x4592) (<= (+ (+ ?x7923 ?x7569) ?x7950) ?x7919))))
 (let ((?x80 (* ?x5786 |v4:13|)))
 (let ((?x5014 (* ?x1927 |v5:12|)))
 (let ((?x5707 (+ (+ (+ (* 2.0 ?x4383) (* 8.0 |v0:17|)) (* 6.0 |v4:13|)) (* 0.0 ?x3704))))
 (let ((?x3384 (* ?x1927 |v12:5|)))
 (let ((?x4952 (* ?x1927 ?x7358)))
 (let ((?x2936 (* 13.0 |v1:16|)))
 (let ((?x4193 (+ (+ (+ ?x80 (* 8.0 |v0:17|)) (* 17.0 |v4:13|)) ?x2936)))
 (let (($x549 (and (<= (+ (+ (+ ?x4193 ?x4952) (* ?x212 |v15:2|)) ?x3384) ?x4592) (<= (+ (+ (+ ?x5707 ?x5014) ?x2466) ?x80) ?x5786))))
 (let (($x2560 (and (or $x549 $x3089) (<= (+ (+ (+ ?x5619 (* ?x212 ?x5470)) ?x1803) ?x9310) 15.0))))
 (let ((?x9109 (* 6.0 ?x3704)))
 (let ((?x6687 (* ?x2249 |v0:17|)))
 (let ((?x5357 (* 3.0 |v2:15|)))
 (let ((?x3198 (+ (+ (+ (+ (* 20.0 ?x4383) (* ?x7091 |v17:0|)) (* ?x4592 ?x7358)) ?x5357) ?x6687)))
 (let ((?x1374 (* 11.0 |v3:14|)))
 (let ((?x2403 (* ?x3237 |v15:2|)))
 (let ((?x6434 (+ (+ (+ (+ ?x9282 (* 0.0 |v16:1|)) (* 11.0 ?x3704)) (* 0.0 |v14:3|)) ?x2403)))
 (let (($x2455 (or (<= (+ (+ ?x6434 (* 10.0 ?x7358)) ?x1374) ?x4592) (<= (+ (+ ?x3198 ?x9109) (* 6.0 ?x5470)) 11.0))))
 (let ((?x7180 (* 0.0 |v14:3|)))
 (let ((?x8851 (+ (+ (+ (+ (* ?x7878 ?x5828) (* 17.0 |v5:12|)) ?x4383) (* ?x4592 |v4:13|)) ?x7180)))
 (let ((?x1274 (* ?x212 |v17:0|)))
 (let ((?x3431 (* 8.0 |v0:17|)))
 (let ((?x6390 (* 4.0 ?x5470)))
 (let ((?x3189 (+ (+ (+ (+ (* 16.0 |v13:4|) (* 3.0 |v13:4|)) (* ?x5967 ?x5828)) ?x4856) ?x6390)))
 (let (($x7676 (or (<= (+ (+ ?x3189 ?x3431) ?x1274) 13.0) (<= (+ (+ ?x8851 (* ?x3558 |v12:5|)) ?x3384) ?x2249))))
 (let ((?x9165 (* 4.0 ?x7358)))
 (let ((?x4105 (+ (+ (+ (+ (* 4.0 ?x4383) (* 14.0 |v3:14|)) (* 0.0 |v15:2|)) ?x9165) ?x5512)))
 (let ((?x9046 (- 19.0)))
 (let ((?x7479 (* ?x9046 |v5:12|)))
 (let ((?x1635 (* 9.0 ?x7358)))
 (let ((?x5410 (* 19.0 |v1:16|)))
 (let ((?x4814 (+ (+ (+ (+ (* ?x3684 ?x5470) (* 10.0 |v12:5|)) (* 11.0 |v15:2|)) ?x5410) ?x1635)))
 (let (($x4368 (or (<= (+ (+ ?x4814 ?x3093) ?x7479) ?x4592) (<= (+ (+ ?x4105 ?x2904) ?x5773) ?x7122))))
 (let ((?x9523 (* 8.0 ?x5470)))
 (let ((?x8714 (* 4.0 |v12:5|)))
 (let ((?x4007 (* ?x5967 |v13:4|)))
 (let ((?x1083 (+ (+ (+ (+ (* 11.0 |v4:13|) (* ?x3558 |v2:15|)) (* ?x7919 |v13:4|)) ?x4007) (* ?x7876 |v17:0|))))
 (let ((?x8962 (* ?x7122 ?x4383)))
 (let ((?x9095 (+ (+ (+ (+ ?x7662 (* 15.0 ?x7358)) ?x5395) (* ?x3237 |v16:1|)) (* ?x1927 |v16:1|))))
 (let (($x4521 (or (<= (+ (+ ?x9095 ?x8962) (* 2.0 ?x5470)) 7.0) (<= (+ (+ ?x1083 ?x8714) ?x9523) 3.0))))
 (let ((?x4319 (* ?x3558 |v1:16|)))
 (let ((?x4027 (* ?x3558 |v13:4|)))
 (let ((?x4568 (* ?x1687 |v5:12|)))
 (let ((?x706 (+ (+ (+ (+ (+ ?x4904 (* ?x2271 ?x5470)) (* 18.0 ?x4383)) ?x3384) ?x4568) ?x4027)))
 (let ((?x811 (* 7.0 |v3:14|)))
 (let ((?x7651 (+ (+ (+ (+ ?x9340 (* 9.0 |v1:16|)) (* 14.0 |v12:5|)) (* ?x9046 ?x5828)) ?x4388)))
 (let (($x5614 (and (<= (+ (+ ?x7651 ?x811) (* ?x7925 |v14:3|)) 8.0) (<= (+ ?x706 ?x4319) ?x7919))))
 (let ((?x2601 (* ?x4592 |v1:16|)))
 (let ((?x8310 (* 20.0 ?x4383)))
 (let ((?x8101 (+ (+ (+ (+ ?x3322 (* ?x7919 ?x9214)) (* ?x7122 |v4:13|)) (* ?x7919 ?x5828)) ?x8310)))
 (let ((?x4728 (* 17.0 |v13:4|)))
 (let ((?x7458 (* 2.0 |v5:12|)))
 (let ((?x8600 (* 8.0 ?x4383)))
 (let ((?x3780 (+ (+ (+ (+ ?x5512 (* ?x3558 |v17:0|)) (* 0.0 |v15:2|)) (* 5.0 ?x3704)) ?x8600)))
 (let (($x2738 (or (<= (+ (+ ?x3780 ?x7458) ?x4728) 6.0) (<= (+ (+ ?x8101 ?x2601) ?x2466) 8.0))))
 (let ((?x6902 (+ (+ (+ (+ (* ?x212 |v16:1|) ?x9310) (* 6.0 |v4:13|)) (* ?x9308 |v4:13|)) ?x9165)))
 (let ((?x673 (* 4.0 |v1:16|)))
 (let ((?x8512 (+ (+ (+ (+ (+ (* 8.0 |v15:2|) ?x7466) (* 16.0 ?x5828)) ?x7240) ?x673) ?x8714)))
 (let (($x398 (and (<= (+ ?x8512 (* ?x1687 ?x4383)) 17.0) (<= (+ (+ ?x6902 (* 9.0 |v16:1|)) ?x1113) 2.0))))
 (let ((?x6394 (* 8.0 |v5:12|)))
 (let ((?x1299 (+ (+ (+ (+ ?x1274 (* 6.0 |v15:2|)) (* ?x9046 ?x9214)) (* ?x7878 |v1:16|)) (* ?x4592 |v16:1|))))
 (let ((?x6863 (* ?x9308 ?x5470)))
 (let ((?x3281 (+ (+ (+ (+ (+ (+ ?x4617 ?x9133) ?x6394) ?x1635) (* ?x7876 |v1:16|)) ?x6863) ?x6863)))
 (let (($x7369 (or (and (and (<= ?x3281 ?x7925) (<= (+ (+ ?x1299 ?x4728) ?x6394) ?x3684)) $x398) (and $x2738 $x5614))))
 (let ((?x6161 (* ?x2271 |v2:15|)))
 (let ((?x865 (* ?x3237 |v4:13|)))
 (let ((?x5780 (+ (+ (+ (+ (* 17.0 |v5:12|) (* ?x3558 |v14:3|)) (* 13.0 |v5:12|)) ?x865) ?x7499)))
 (let ((?x1480 (* 8.0 |v14:3|)))
 (let ((?x9277 (+ (+ (+ (+ (* ?x2249 |v5:12|) ?x2345) (* ?x7091 |v16:1|)) (* ?x2271 |v5:12|)) ?x1708)))
 (let (($x3243 (or (<= (+ (+ ?x9277 ?x1971) ?x1480) 1.0) (<= (+ (+ ?x5780 (* ?x3558 |v15:2|)) ?x6161) 13.0))))
 (let ((?x8799 (* 20.0 |v16:1|)))
 (let ((?x185 (* 18.0 ?x3704)))
 (let ((?x2790 (+ (+ (+ (+ (* 5.0 |v5:12|) (* 0.0 |v15:2|)) ?x185) (* ?x7919 |v5:12|)) ?x1708)))
 (let ((?x4052 (* 16.0 ?x4383)))
 (let ((?x4268 (* 5.0 ?x5470)))
 (let ((?x8956 (* 20.0 |v4:13|)))
 (let ((?x546 (* 4.0 |v17:0|)))
 (let ((?x260 (+ (+ (+ (+ (* 3.0 |v14:3|) (* 2.0 ?x5828)) (* 17.0 |v14:3|)) ?x546) ?x8956)))
 (let (($x3456 (or (<= (+ (+ ?x260 ?x4268) ?x4052) 15.0) (<= (+ (+ ?x2790 ?x185) ?x8799) ?x9046))))
 (let ((?x7349 (* 0.0 |v16:1|)))
 (let ((?x6237 (* 17.0 |v4:13|)))
 (let ((?x6768 (+ (+ (+ (* ?x7122 |v17:0|) (* 18.0 |v12:5|)) (* 5.0 |v4:13|)) (* ?x3684 ?x3704))))
 (let ((?x4323 (* ?x9308 |v13:4|)))
 (let ((?x4906 (* 3.0 ?x3704)))
 (let ((?x4426 (* ?x7876 |v0:17|)))
 (let ((?x7161 (+ (+ (+ (+ ?x6016 (* ?x212 |v0:17|)) (* 20.0 |v2:15|)) (* 9.0 |v14:3|)) ?x4426)))
 (let (($x2794 (or (<= (+ (+ ?x7161 ?x4906) ?x4323) 7.0) (<= (+ (+ (+ ?x6768 (* ?x3558 ?x3704)) ?x6237) ?x7349) ?x5967))))
 (let ((?x7060 (* ?x1927 |v4:13|)))
 (let ((?x4480 (* 11.0 ?x4383)))
 (let ((?x5105 (+ (+ (+ (+ (* ?x2249 ?x4383) (* ?x2271 |v17:0|)) (* ?x5967 |v17:0|)) ?x8923) ?x563)))
 (let ((?x4851 (* 3.0 |v3:14|)))
 (let ((?x2160 (* 7.0 ?x7358)))
 (let ((?x8925 (* 0.0 ?x5470)))
 (let ((?x1370 (+ (+ (+ (+ (* 8.0 |v2:15|) (* ?x1687 |v2:15|)) (* 4.0 |v16:1|)) ?x8925) ?x2160)))
 (let (($x3048 (or (<= (+ (+ ?x1370 ?x80) ?x4851) 17.0) (<= (+ (+ ?x5105 ?x4480) ?x7060) ?x9046))))
 (let (($x6075 (or (or (and (or $x3048 $x2794) (or $x3456 $x3243)) $x7369) (and (and (or $x4521 $x4368) (or $x7676 $x2455)) $x2560))))
 (let ((?x3796 (* 12.0 |v0:17|)))
 (let ((?x4377 (* 17.0 |v1:16|)))
 (let ((?x680 (* ?x7878 |v13:4|)))
 (let ((?x6197 (* 9.0 |v14:3|)))
 (let ((?x6988 (+ (+ (+ (+ (* ?x5967 |v2:15|) (* ?x5967 |v2:15|)) (* 4.0 ?x3704)) ?x6197) ?x680)))
 (let ((?x6860 (* ?x212 |v16:1|)))
 (let ((?x2303 (* 14.0 |v2:15|)))
 (let ((?x8433 (* 0.0 |v1:16|)))
 (let ((?x9548 (+ (+ (+ (+ (* ?x2271 |v5:12|) (* 2.0 ?x7358)) (* 9.0 |v0:17|)) ?x8433) ?x2337)))
 (let (($x5106 (or (<= (+ (+ ?x9548 ?x2303) ?x6860) 15.0) (<= (+ (+ ?x6988 ?x4377) ?x3796) ?x7925))))
 (let ((?x8088 (* ?x3684 |v0:17|)))
 (let ((?x6574 (+ (+ (+ (+ ?x192 (* 4.0 |v13:4|)) (* ?x3237 |v5:12|)) (* ?x7876 ?x4383)) (* ?x9046 |v15:2|))))
 (let ((?x845 (* 20.0 |v2:15|)))
 (let ((?x2270 (* ?x2271 |v15:2|)))
 (let ((?x9311 (+ (+ (+ (+ (* 3.0 |v17:0|) (* 18.0 |v5:12|)) (* ?x9046 |v12:5|)) ?x2270) ?x5190)))
 (let (($x3557 (or (<= (+ (+ ?x9311 ?x845) ?x6237) 18.0) (<= (+ (+ ?x6574 ?x8088) ?x8383) 6.0))))
 (let ((?x5434 (* 13.0 |v3:14|)))
 (let ((?x8209 (* 0.0 |v4:13|)))
 (let ((?x3009 (+ (+ (+ (+ (+ (* 20.0 |v13:4|) ?x2270) ?x4323) (* 7.0 |v16:1|)) ?x8209) ?x5434)))
 (let ((?x3707 (* 20.0 ?x9214)))
 (let ((?x2564 (+ (+ (+ (+ ?x5512 ?x2466) (* 19.0 ?x4383)) (* 10.0 |v0:17|)) (* 3.0 |v15:2|))))
 (let (($x2468 (or (<= (+ (+ ?x2564 ?x3707) (* 13.0 |v15:2|)) 12.0) (<= (+ ?x3009 ?x1971) 9.0))))
 (let ((?x1093 (* 20.0 |v1:16|)))
 (let ((?x1726 (+ (+ (+ (+ ?x7237 (* ?x7091 ?x3704)) (* ?x5967 ?x4383)) (* 0.0 |v5:12|)) ?x5578)))
 (let ((?x6198 (* 18.0 |v16:1|)))
 (let ((?x785 (* 20.0 |v13:4|)))
 (let ((?x8731 (* 8.0 ?x5828)))
 (let ((?x1710 (+ (+ (+ (* ?x3684 ?x5470) (* 7.0 ?x4383)) (* 0.0 |v15:2|)) (* ?x3558 ?x9214))))
 (let (($x7284 (and (<= (+ (+ (+ ?x1710 ?x8731) ?x785) ?x6198) 15.0) (<= (+ (+ ?x1726 (* ?x7122 ?x7358)) ?x1093) 18.0))))
 (let ((?x8084 (* 2.0 |v17:0|)))
 (let ((?x5484 (* 14.0 |v4:13|)))
 (let ((?x4061 (* 12.0 |v15:2|)))
 (let ((?x8743 (* 10.0 |v14:3|)))
 (let ((?x3851 (+ (+ (+ (+ (* 8.0 ?x9214) (* 11.0 ?x3704)) (* ?x2249 |v4:13|)) ?x8743) ?x4061)))
 (let ((?x8324 (+ (+ (+ (+ (+ (+ ?x4323 |v12:5|) (* 9.0 |v15:2|)) ?x9109) ?x8340) ?x4728) ?x631)))
 (let ((?x2309 (* ?x1687 |v15:2|)))
 (let ((?x323 (* 9.0 ?x5470)))
 (let ((?x465 (* ?x7091 |v3:14|)))
 (let ((?x6484 (+ (+ (+ (+ (* ?x5786 |v5:12|) (* 20.0 ?x5470)) (* ?x2271 |v3:14|)) ?x465) ?x323)))
 (let ((?x3952 (* ?x5786 |v16:1|)))
 (let ((?x8885 (* 11.0 |v17:0|)))
 (let ((?x2582 (+ (+ (+ (+ (* 18.0 ?x4383) (* ?x5967 |v5:12|)) (* ?x4592 |v15:2|)) ?x8885) (* ?x1687 ?x5828))))
 (let (($x7774 (and (<= (+ (+ ?x2582 ?x3952) ?x5828) ?x3237) (<= (+ (+ ?x6484 (* ?x2271 ?x4383)) ?x2309) 9.0))))
 (let ((?x2612 (* ?x5967 |v3:14|)))
 (let ((?x8337 (+ (+ (+ (+ (+ (+ ?x4056 ?x7662) ?x6779) ?x5040) (* 11.0 |v13:4|)) |v13:4|) ?x2612)))
 (let ((?x686 (* 18.0 |v17:0|)))
 (let ((?x6023 (* 19.0 ?x5828)))
 (let ((?x5328 (* ?x3684 |v14:3|)))
 (let ((?x110 (+ (+ (+ (+ (* ?x2271 |v12:5|) (* 9.0 |v3:14|)) (* 17.0 ?x3704)) ?x5328) ?x6023)))
 (let ((?x236 (* 16.0 |v2:15|)))
 (let ((?x2039 (+ (+ (+ (+ (+ ?x9447 (* ?x5786 |v2:15|)) (* 16.0 |v3:14|)) ?x2303) ?x5578) ?x236)))
 (let ((?x6859 (* ?x4592 ?x3704)))
 (let ((?x7984 (* 7.0 |v17:0|)))
 (let ((?x7346 (* ?x9308 |v5:12|)))
 (let ((?x9153 (* 10.0 |v0:17|)))
 (let ((?x3224 (+ (+ (+ (+ (* ?x3684 |v17:0|) (* ?x7091 |v14:3|)) (* 13.0 ?x5828)) ?x9153) ?x7346)))
 (let (($x745 (and (<= (+ (+ ?x3224 ?x7984) ?x6859) ?x1687) (<= (+ ?x2039 (* ?x7878 ?x4383)) 14.0))))
 (let (($x7829 (and $x745 (and (<= (+ (+ ?x110 ?x686) (* ?x7876 ?x5470)) ?x4232) (<= ?x8337 ?x3684)))))
 (let (($x6028 (or $x7829 (or $x7774 (and (<= ?x8324 11.0) (<= (+ (+ ?x3851 ?x5484) ?x8084) 18.0))))))
 (let ((?x5345 (* ?x4232 |v3:14|)))
 (let ((?x3033 (+ (+ (+ (+ (* ?x9046 |v16:1|) ?x4319) (* ?x2271 |v0:17|)) (* ?x7091 |v15:2|)) ?x5395)))
 (let ((?x4736 (* ?x1687 |v1:16|)))
 (let ((?x3926 (+ (+ (+ (+ (+ ?x4319 ?x7499) ?x9282) (* ?x2271 |v13:4|)) (* ?x9046 |v3:14|)) ?x9310)))
 (let ((?x7123 (* 2.0 ?x9214)))
 (let ((?x6045 (* ?x5786 |v2:15|)))
 (let ((?x5021 (+ (+ (+ (+ (* ?x1687 ?x7358) (* ?x212 |v1:16|)) (* 15.0 |v4:13|)) ?x6045) ?x7123)))
 (let (($x7263 (or (and (<= (+ (+ ?x5021 ?x9214) ?x1803) ?x7878) (<= (+ ?x3926 ?x4736) 14.0)) (<= (+ (+ ?x3033 ?x619) ?x5345) ?x7876))))
 (let ((?x8176 (* ?x7878 |v3:14|)))
 (let ((?x1376 (+ (+ (+ (+ (+ ?x7060 (* ?x7878 |v1:16|)) (* 14.0 |v3:14|)) ?x3952) ?x6307) (* 14.0 |v13:4|))))
 (let ((?x7130 (* ?x4592 |v14:3|)))
 (let ((?x1141 (+ (+ (+ (+ (* 17.0 |v17:0|) (* 7.0 ?x3704)) (* ?x9308 |v4:13|)) ?x2309) ?x7130)))
 (let ((?x5817 (* ?x7091 |v15:2|)))
 (let ((?x8250 (* ?x3558 ?x4383)))
 (let ((?x898 (* 10.0 |v12:5|)))
 (let ((?x8073 (+ (+ (+ (+ (* 20.0 ?x5470) (* 5.0 |v15:2|)) (* 7.0 |v14:3|)) ?x898) ?x8250)))
 (let (($x6579 (or (<= (+ (+ ?x8073 (* ?x2271 |v14:3|)) ?x5817) ?x7091) (and (<= (+ (+ ?x1141 ?x4319) ?x7950) ?x5967) (<= (+ ?x1376 ?x8176) 9.0)))))
 (let ((?x7312 (* 10.0 ?x4383)))
 (let ((?x7470 (* 8.0 |v4:13|)))
 (let ((?x1786 (+ (+ (+ (+ (* ?x9046 |v3:14|) (* ?x7876 |v4:13|)) (* ?x9308 ?x5828)) ?x7470) ?x7312)))
 (let (($x451 (and (and (<= (+ (+ ?x1786 ?x8743) ?x4856) 8.0) (or $x6579 $x7263)) (or $x6028 (and (and $x7284 $x2468) (and $x3557 $x5106))))))
 (let ((?x2643 (+ (+ (+ (+ (* ?x1927 |v3:14|) (* ?x1927 |v13:4|)) (* ?x4592 |v2:15|)) ?x7130) (* ?x7925 |v12:5|))))
 (let ((?x8989 (* ?x5967 ?x5828)))
 (let ((?x8500 (* 7.0 ?x3704)))
 (let ((?x319 (* 9.0 |v0:17|)))
 (let ((?x6115 (+ (+ (+ (+ (* 20.0 |v0:17|) (* 14.0 ?x4383)) (* ?x5786 ?x5470)) ?x185) ?x319)))
 (let ((?x7370 (+ (+ (+ (+ (* ?x7919 |v2:15|) (* ?x5967 ?x5470)) ?x4728) (* ?x4592 ?x5470)) ?x7773)))
 (let ((?x7965 (* ?x9046 |v13:4|)))
 (let ((?x5141 (* ?x9308 ?x5828)))
 (let ((?x4478 (+ (+ (+ (+ ?x4268 (* ?x4592 |v12:5|)) (* 7.0 ?x4383)) ?x7060) (* 13.0 |v12:5|))))
 (let (($x5727 (and (<= (+ (+ ?x4478 ?x5141) ?x7965) ?x9308) (<= (+ (+ ?x7370 ?x2936) (* ?x5967 ?x9214)) 5.0))))
 (let ((?x1033 (* 10.0 |v15:2|)))
 (let ((?x5899 (+ (+ (+ (+ (+ ?x2403 (* 17.0 ?x9214)) ?x4137) (* ?x7919 |v5:12|)) ?x811) ?x1033)))
 (let ((?x6987 (* 5.0 |v13:4|)))
 (let ((?x5918 (* 18.0 ?x5828)))
 (let ((?x1402 (+ (+ (+ (+ (+ ?x3952 (* ?x1927 ?x9214)) (* 19.0 ?x5470)) ?x8925) ?x5918) ?x6987)))
 (let ((?x5391 (* ?x7925 |v0:17|)))
 (let ((?x195 (+ (+ (+ (+ (+ (+ ?x5946 ?x8799) ?x1635) ?x1496) (* 15.0 ?x5828)) ?x5328) ?x5391)))
 (let ((?x94 (+ (+ (+ (+ (* 3.0 ?x7358) (* ?x3684 |v12:5|)) ?x1803) (* 5.0 |v16:1|)) ?x8510)))
 (let (($x1844 (or (and (<= (+ (+ ?x94 (* ?x212 |v13:4|)) ?x2332) ?x1927) (<= ?x195 5.0)) (and (<= (+ ?x1402 ?x5434) ?x1687) (<= (+ ?x5899 |v0:17|) ?x3684)))))
 (let ((?x2210 (* ?x2249 ?x7358)))
 (let ((?x876 (* ?x7878 ?x5828)))
 (let ((?x3574 (+ (+ (+ (+ (+ (* 3.0 |v14:3|) ?x499) ?x5345) (* ?x5786 ?x5828)) ?x876) ?x3952)))
 (let ((?x5983 (* ?x5967 |v2:15|)))
 (let ((?x5090 (+ (+ (+ (+ (* ?x4592 |v15:2|) (* ?x2271 |v0:17|)) ?x9146) (* ?x5786 |v14:3|)) ?x323)))
 (let ((?x3723 (* ?x7876 |v2:15|)))
 (let ((?x1457 (+ (+ (+ (+ (* 4.0 |v13:4|) (* 13.0 ?x5828)) (* ?x7122 |v15:2|)) ?x3723) ?x7965)))
 (let (($x5269 (and (<= (+ (+ ?x1457 ?x1033) (* ?x3684 |v15:2|)) 11.0) (and (<= (+ (+ ?x5090 ?x5190) ?x5983) ?x7919) (<= (+ ?x3574 ?x2210) ?x2271)))))
 (let ((?x5063 (+ (+ (+ (+ (+ ?x7662 (* ?x2271 ?x7358)) ?x4388) (* ?x7925 ?x3704)) ?x6234) ?x8956)))
 (let ((?x7063 (* ?x1687 |v0:17|)))
 (let ((?x8347 (* ?x7878 |v5:12|)))
 (let ((?x3990 (* ?x7925 |v2:15|)))
 (let ((?x5193 (+ (+ (+ (+ (* ?x4592 |v5:12|) (* ?x212 ?x9214)) (* ?x7876 ?x4383)) ?x4007) ?x3990)))
 (let ((?x6141 (* ?x7122 |v15:2|)))
 (let ((?x7613 (+ (+ (+ (+ (* ?x7091 |v4:13|) (* 12.0 |v4:13|)) ?x3093) (* 14.0 |v0:17|)) ?x6141)))
 (let ((?x6897 (* ?x7876 |v14:3|)))
 (let ((?x646 (* ?x212 ?x5828)))
 (let ((?x1050 (+ (+ (+ (+ (* 0.0 ?x9214) (* 4.0 |v4:13|)) (* 17.0 |v16:1|)) ?x646) (* 18.0 |v14:3|))))
 (let (($x8509 (or (<= (+ (+ ?x1050 ?x6897) ?x8250) 11.0) (<= (+ (+ ?x7613 (* ?x2249 |v14:3|)) ?x1971) ?x7919))))
 (let (($x6405 (and $x8509 (or (<= (+ (+ ?x5193 ?x8347) ?x7063) ?x5967) (<= (+ ?x5063 |v4:13|) ?x5786)))))
 (let (($x5647 (and (and $x6405 $x5269) (and $x1844 (and $x5727 (<= (+ (+ ?x6115 ?x8500) ?x8989) 7.0))))))
 (let (($x1651 (and (and (or $x5647 (<= (+ (+ ?x2643 (* ?x5967 |v15:2|)) ?x4265) ?x2271)) $x451) (and $x6075 (or $x3635 $x8648)))))
 (let (($x4184 (not (= |v6:11_st| (RMk1 val!10145)))))
 (let (($x3947 (not (= |v7:10_st| (RMk1 val!10144)))))
 (let (($x3746 (not (= |v8:9_st| (RMk1 val!10143)))))
 (let (($x3505 (not (= |v9:8_st| (RMk1 val!10142)))))
 (let (($x1202 (not (= |v10:7_st| (RMk1 val!10141)))))
 (let (($x2351 (not (= |v11:6_st| (RMk1 val!10140)))))
 (and $x2351 $x1202 $x3505 $x3746 $x3947 $x4184 $x1651))))))))))))))))))))))))))))))))))))))))))))))))))))))))))))))))))))))))))))))))))))))))))))))))))))))))))))))))))))))))))))))))))))))))))))))))))))))))))))))))))))))))))))))))))))))))))))))))))))))))))))))))))))))))))))))))))))))))))))))))))))))))))))))))))))))))))))))))))))))))))))))))))))))))))))))))))))))))))))))))))))))))))))))))))))))))))))))))))))))))))))))))))))))))))))))))))))))
 )
 )
 )
 )
 )
 )
 )
 )
 )
 )
 )
 )
 )
 )
 )
 )
 )
 )
(check-sat)
